$molecule
0 1
--
0 1
C    1.56815    0.54527    1.43562   
Si   -0.29371   0.41266    1.51834   
C    -0.95425   1.30804    3.01936   
C    -0.82321   -1.37910   1.53113   
H    -0.86467   1.06179    0.30227   
H    1.88873    1.58490    1.39617   
H    2.02229    0.08831    2.31419   
H    1.96085    0.03942    0.55506   
H    -0.66933   2.35846    3.00851   
H    -2.04050   1.25502    3.06342   
H    -0.56027   0.86391    3.93267   
H    -0.45579   -1.90526   0.65157   
H    -0.43131   -1.88620   2.41216   
H    -1.90790   -1.47038   1.54784   
--
0 1
I    -0.19074   0.09589    -2.31982  
C    0.35288    -0.67350   -4.23976  
F    -0.05173   -1.93209   -4.37351  
F    -0.20162   0.04582    -5.20926  
F    1.67133    -0.64257   -4.40226  
$end

$rem
JOBTYPE  EDA
EDA2  1
METHOD  WB97X-V
BASIS  DEF2-TZVPPD
SYMMETRY  FALSE
SYM_IGNORE  TRUE
MEM_TOTAL  8000
MEM_STATIC  2000
BASIS_LIN_DEP_THRESH  6
THRESH  14
SCF_CONVERGENCE  8
GEN_SCFMAN  TRUE
MAXSCF  200
FD_MAT_VEC_PROD  FALSE
XC_GRID  000099000590
NL_GRID  1
SCF_GUESS  FRAGMO
FRZ_ORTHO_DECOMP  -1
EDA_CLS_DISP  TRUE
EDA_POL_A  TRUE
EDA_VCT_A  TRUE
$end
