$molecule
1 1
--
0 1
C    1.78663    0.00000    2.04933   
Si   -0.00001   -0.00004   1.51826   
C    -0.89319   -1.54730   2.04960   
C    -0.89328   1.54715    2.04967   
H    -0.00019   -0.00001   0.00505   
H    2.31537    -0.88302   1.69382   
H    2.31534    0.88302    1.69378   
H    1.84726    0.00003    3.13750   
H    -1.92240   1.56358    1.69425   
H    -0.39297   2.44661    1.69422   
H    -0.92348   1.59948    3.13785   
H    -1.92237   -1.56369   1.69433   
H    -0.39293   -2.44671   1.69396   
H    -0.92323   -1.59978   3.13778   
--
1 1
K    -0.00006   0.00005    -2.59410  
$end

$rem
JOBTYPE  EDA
EDA2  1
METHOD  WB97X-V
BASIS  DEF2-TZVPPD
SYMMETRY  FALSE
SYM_IGNORE  TRUE
MEM_TOTAL  8000
MEM_STATIC  2000
BASIS_LIN_DEP_THRESH  6
THRESH  14
SCF_CONVERGENCE  8
GEN_SCFMAN  TRUE
MAXSCF  200
FD_MAT_VEC_PROD  FALSE
XC_GRID  000099000590
NL_GRID  1
SCF_GUESS  FRAGMO
FRZ_ORTHO_DECOMP  -1
EDA_CLS_DISP  TRUE
EDA_POL_A  TRUE
EDA_VCT_A  TRUE
$end
