$molecule
0 1
--
0 1
H    -0.02822   -0.14563   -0.03591  
Si   -0.02665   -0.06263   1.45428   
C    1.74862    -0.04594   2.03285   
C    -0.90349   1.51043    1.95140   
C    -0.93024   -1.55523   2.12226   
H    2.27180    -0.94950   1.72553   
H    1.79468    0.01420    3.11946   
H    2.28721    0.80860    1.62757   
H    -0.40634   2.38728    1.54027   
H    -1.93555   1.51607    1.60429   
H    -0.91750   1.61247    3.03592   
H    -1.96271   -1.58126   1.77728   
H    -0.44905   -2.48086   1.81125   
H    -0.94459   -1.53608   3.21139   
--
0 1
Br   -2.38811   -0.20122   -1.35781  
C    -3.97333   -0.23477   -2.18027  
N    -5.01455   -0.25665   -2.71773  
$end

$rem
JOBTYPE  EDA
EDA2  1
METHOD  WB97X-V
BASIS  DEF2-TZVPPD
SYMMETRY  FALSE
SYM_IGNORE  TRUE
MEM_TOTAL  8000
MEM_STATIC  2000
BASIS_LIN_DEP_THRESH  6
THRESH  14
SCF_CONVERGENCE  8
GEN_SCFMAN  TRUE
MAXSCF  200
FD_MAT_VEC_PROD  FALSE
XC_GRID  000099000590
NL_GRID  1
SCF_GUESS  FRAGMO
FRZ_ORTHO_DECOMP  -1
EDA_CLS_DISP  TRUE
EDA_POL_A  TRUE
EDA_VCT_A  TRUE
$end
