$molecule
0 1
--
0 1
C    1.70497    -0.18534   1.58079   
Si   -0.13586   -0.35925   1.29488   
C    -0.98429   1.30639    1.38966   
C    -0.88597   -1.54555   2.53582   
H    -0.35091   -0.92322   -0.06417  
H    2.20625    -1.15046   1.51996   
H    2.14877    0.47446    0.83754   
H    1.90418    0.23241    2.56742   
H    -2.05028   1.21799    1.18341   
H    -0.55635   2.00199    0.67047   
H    -0.87236   1.73684    2.38467   
H    -1.95465   -1.66987   2.36671   
H    -0.42028   -2.52809   2.47409   
H    -0.74997   -1.17518   3.55165   
--
0 1
N    0.16044    0.55015    -2.25000  
F    1.03195    1.49997    -1.44257  
O    0.79617    -0.34160   -2.67772  
O    -0.95638   0.91838    -2.26732  
$end

$rem
JOBTYPE  EDA
EDA2  1
METHOD  WB97X-V
BASIS  DEF2-TZVPPD
SYMMETRY  FALSE
SYM_IGNORE  TRUE
MEM_TOTAL  8000
MEM_STATIC  2000
BASIS_LIN_DEP_THRESH  6
THRESH  14
SCF_CONVERGENCE  8
GEN_SCFMAN  TRUE
MAXSCF  200
FD_MAT_VEC_PROD  FALSE
XC_GRID  000099000590
NL_GRID  1
SCF_GUESS  FRAGMO
FRZ_ORTHO_DECOMP  -1
EDA_CLS_DISP  TRUE
EDA_POL_A  TRUE
EDA_VCT_A  TRUE
$end
