$molecule
0 1
--
0 1
C    1.71140    -0.17084   1.62259   
Si   -0.12229   -0.35493   1.30060   
C    -0.97836   1.30696    1.39640   
C    -0.89053   -1.56030   2.51081   
H    -0.30624   -0.90045   -0.07082  
H    2.22277    -1.13002   1.55427   
H    2.16456    0.50643    0.90033   
H    1.88849    0.23165    2.61972   
H    -2.03780   1.22069    1.15875   
H    -0.53160   2.01670    0.70213   
H    -0.89481   1.72208    2.40064   
H    -1.95485   -1.68787   2.31857   
H    -0.41833   -2.53945   2.44562   
H    -0.77663   -1.20221   3.53370   
--
0 1
C    0.29824    0.70189    -2.13603  
O    1.04957    1.40073    -1.55831  
F    0.60645    -0.39291   -2.78819  
F    -0.99462   0.89184    -2.25548  
$end

$rem
JOBTYPE  EDA
EDA2  1
METHOD  WB97X-V
BASIS  DEF2-TZVPPD
SYMMETRY  FALSE
SYM_IGNORE  TRUE
MEM_TOTAL  8000
MEM_STATIC  2000
BASIS_LIN_DEP_THRESH  6
THRESH  14
SCF_CONVERGENCE  8
GEN_SCFMAN  TRUE
MAXSCF  200
FD_MAT_VEC_PROD  FALSE
XC_GRID  000099000590
NL_GRID  1
SCF_GUESS  FRAGMO
FRZ_ORTHO_DECOMP  -1
EDA_CLS_DISP  TRUE
EDA_POL_A  TRUE
EDA_VCT_A  TRUE
$end
