$molecule
0 1
--
0 1
H    0.00274    -0.00385   0.00926   
Si   0.00019    0.00041    1.49851   
C    1.76792    0.00166    2.10231   
H    2.28965    -0.89716   1.77821   
H    2.31469    0.86722    1.73198   
H    1.79630    0.03064    3.19101   
C    -0.88646   1.54533    2.07103   
H    -0.38688   2.44353    1.71221   
H    -0.91226   1.59009    3.15911   
H    -1.91394   1.56720    1.71203   
C    -0.89282   -1.52530   2.10200   
H    -0.93241   -1.53527   3.19069   
H    -1.91590   -1.56071   1.73136   
H    -0.37986   -2.42916   1.77795   
--
0 1
N    1.77317    -3.08704   -0.00366  
C    1.40242    -2.44152   -0.89768  
H    1.05883    -1.84327   -1.70845  
$end

$rem
JOBTYPE  EDA
EDA2  1
METHOD  WB97X-V
BASIS  DEF2-TZVPPD
SYMMETRY  FALSE
SYM_IGNORE  TRUE
MEM_TOTAL  8000
MEM_STATIC  2000
BASIS_LIN_DEP_THRESH  6
THRESH  14
SCF_CONVERGENCE  8
GEN_SCFMAN  TRUE
MAXSCF  200
FD_MAT_VEC_PROD  FALSE
XC_GRID  000099000590
NL_GRID  1
SCF_GUESS  FRAGMO
FRZ_ORTHO_DECOMP  -1
EDA_CLS_DISP  TRUE
EDA_POL_A  TRUE
EDA_VCT_A  TRUE
$end
