$molecule
0 1
O    -1.52402   -0.56029   -0.02264  
H    -0.72105   -0.62962   0.55777   
O    0.73679    -1.37171   1.40921   
H    0.20085    -1.60508   2.20850   
H    1.08326    -2.23923   1.08059   
C    -1.95717   0.77894    -0.00569  
C    -3.20908   0.88643    -0.88827  
H    -4.01263   0.22320    -0.50157  
H    -3.59077   1.93037    -0.90712  
H    -2.97567   0.57643    -1.92965  
C    -2.31156   1.19697    1.43352   
H    -3.10435   0.53522    1.84373   
H    -1.41946   1.12070    2.09160   
H    -2.67650   2.24657    1.45900   
C    -0.85478   1.69261    -0.57201  
H    -0.59415   1.38700    -1.60808  
H    -1.19224   2.75152    -0.58803  
H    0.06220    1.62813    0.05160   
$end

$rem
JOBTYPE  OPT
METHOD  WB97X-V
BASIS  DEF2-SVPD
SYMMETRY  FALSE
SYM_IGNORE  TRUE
MEM_TOTAL  8000
MEM_STATIC  2000
BASIS_LIN_DEP_THRESH  6
THRESH  14
SCF_CONVERGENCE  8
FD_MAT_VEC_PROD  FALSE
XC_GRID  000099000590
NL_GRID  1
MAX_SCF_CYCLES  200
GEOM_OPT_MAX_CYCLES  200
GEOM_OPT_DRIVER  OPTIMIZE
GEOM_OPT_TOL_GRADIENT  100
GEOM_OPT_TOL_DISPLACEMENT  100
GEOM_OPT_TOL_ENERGY  10
$end

@@@

$molecule
read
$end

$rem
JOBTYPE  FREQ
METHOD  WB97X-V
BASIS  DEF2-SVPD
SYMMETRY  FALSE
SYM_IGNORE  TRUE
MEM_TOTAL  8000
MEM_STATIC  2000
BASIS_LIN_DEP_THRESH  6
THRESH  14
SCF_CONVERGENCE  8
FD_MAT_VEC_PROD  FALSE
XC_GRID  000099000590
NL_GRID  1
MAX_SCF_CYCLES  200
GEOM_OPT_MAX_CYCLES  200
GEOM_OPT_DRIVER  OPTIMIZE
GEOM_OPT_TOL_GRADIENT  100
GEOM_OPT_TOL_DISPLACEMENT  100
GEOM_OPT_TOL_ENERGY  10
SCF_GUESS  READ
$end
