$molecule
0 1
S          1.07774        1.17696        0.00000
H         -0.27036        1.18433        0.00000
C          1.26826       -0.62865        0.00000
O         -2.21652       -0.10130        0.00000
H         -2.79879       -0.11482        0.76674
H         -2.79879       -0.11482       -0.76674
C          2.83894       -0.93354        0.00000
H          3.20985       -1.86471       -0.37451
H          3.49292       -0.40646       -0.66287
H          3.04218       -0.76786        1.03738
C          0.61660       -1.28179        1.30719
H          1.03396       -1.09052        2.27368
H         -0.34077       -0.95515        1.65598
H          0.64706       -2.31038        1.01399
C          0.61660       -1.28179       -1.30719
H         -0.01487       -2.14172       -1.22557
H         -0.15334       -0.76729       -1.84328
H          1.50846       -1.44704       -1.87479
$end

$rem
JOBTYPE  OPT
METHOD  WB97X-V
BASIS  DEF2-SVPD
SYMMETRY  FALSE
SYM_IGNORE  TRUE
MEM_TOTAL  8000
MEM_STATIC  2000
BASIS_LIN_DEP_THRESH  6
THRESH  14
SCF_CONVERGENCE  8
FD_MAT_VEC_PROD  FALSE
XC_GRID  000099000590
NL_GRID  1
MAX_SCF_CYCLES  200
GEOM_OPT_MAX_CYCLES  200
GEOM_OPT_DRIVER  OPTIMIZE
GEOM_OPT_TOL_GRADIENT  100
GEOM_OPT_TOL_DISPLACEMENT  100
GEOM_OPT_TOL_ENERGY  10
$end

@@@

$molecule
read
$end

$rem
JOBTYPE  FREQ
METHOD  WB97X-V
BASIS  DEF2-SVPD
SYMMETRY  FALSE
SYM_IGNORE  TRUE
MEM_TOTAL  8000
MEM_STATIC  2000
BASIS_LIN_DEP_THRESH  6
THRESH  14
SCF_CONVERGENCE  8
FD_MAT_VEC_PROD  FALSE
XC_GRID  000099000590
NL_GRID  1
MAX_SCF_CYCLES  200
GEOM_OPT_MAX_CYCLES  200
GEOM_OPT_DRIVER  OPTIMIZE
GEOM_OPT_TOL_GRADIENT  100
GEOM_OPT_TOL_DISPLACEMENT  100
GEOM_OPT_TOL_ENERGY  10
SCF_GUESS  READ
$end
