$molecule
0 1
--
0 1
H    -0.57596   -0.00011   0.51740   
Si   0.72779    0.00006    -0.22924  
C    0.78192    1.55631    -1.29692  
H    -0.04843   1.57566    -2.01892  
H    0.71094    2.46649    -0.68263  
H    1.72185    1.61098    -1.86811  
C    2.12383    0.00014    1.04191   
H    2.07679    0.88875    1.68921   
H    3.10693    0.00028    0.54658   
H    2.07698    -0.88855   1.68913   
C    0.78233    -1.55610   -1.29704  
H    1.72224    -1.61041   -1.86828  
H    0.71165    -2.46636   -0.68283  
H    -0.04805   -1.57567   -2.01900  
--
0 1
N    -4.30425   -0.00072   2.52202   
C    -3.28473   -0.00054   1.98047   
H    -2.33153   -0.00038   1.47168   
$end

$rem
JOBTYPE  EDA
EDA2  1
METHOD  B3LYP
BASIS  DEF2-TZVPPD
SYMMETRY  FALSE
SYM_IGNORE  TRUE
MEM_TOTAL  8000
MEM_STATIC  2000
BASIS_LIN_DEP_THRESH  6
THRESH  14
SCF_CONVERGENCE  8
GEN_SCFMAN  TRUE
MAXSCF  200
FD_MAT_VEC_PROD  FALSE
XC_GRID  000099000590
NL_GRID  1
SCF_GUESS  FRAGMO
FRZ_ORTHO_DECOMP  -1
EDA_CLS_DISP  TRUE
$end
