$molecule
0 1
--
0 1
H    -1.04742   -0.00035   -0.03538  
Si   -2.52250   -0.00007   -0.34798  
C    -2.89072   -1.55793   -1.34545  
H    -2.32000   -1.57745   -2.28621  
H    -2.63371   -2.46532   -0.77848  
H    -3.96001   -1.61568   -1.60250  
C    -3.44935   -0.00020   1.29476   
H    -3.20227   -0.88933   1.89389   
H    -4.53825   -0.00006   1.13108   
H    -3.20209   0.88863    1.89427   
C    -2.89028   1.55819    -1.34497  
H    -3.95956   1.61631    -1.60201  
H    -2.31954   1.57775    -2.28570  
H    -2.63301   2.46535    -0.77774  
--
0 1
I    1.55668    -0.00111   0.34502   
C    3.55675    0.00037    0.68081   
N    4.70135    0.00099    0.87804   
$end

$rem
JOBTYPE  EDA
EDA2  1
METHOD  B3LYP
BASIS  DEF2-TZVPPD
SYMMETRY  FALSE
SYM_IGNORE  TRUE
MEM_TOTAL  8000
MEM_STATIC  2000
BASIS_LIN_DEP_THRESH  6
THRESH  14
SCF_CONVERGENCE  8
GEN_SCFMAN  TRUE
MAXSCF  200
FD_MAT_VEC_PROD  FALSE
XC_GRID  000099000590
NL_GRID  1
SCF_GUESS  FRAGMO
FRZ_ORTHO_DECOMP  -1
EDA_CLS_DISP  TRUE
$end
