$molecule
0 1
H    -1.35530   -0.00009   0.96646   
Si   -2.53568   -0.00003   0.02213   
C    -2.42322   -1.55027   -1.03852  
H    -1.50030   -1.55984   -1.64054  
H    -2.43158   -2.46207   -0.42004  
H    -3.27588   -1.60939   -1.73483  
C    -4.09460   -0.00017   1.07385   
H    -4.14057   -0.89063   1.72067   
H    -4.99405   -0.00012   0.43638   
H    -4.14060   0.89015    1.72086   
C    -2.42329   1.55043    -1.03821  
H    -3.27596   1.60964    -1.73451  
H    -1.50038   1.56016    -1.64023  
H    -2.43171   2.46210    -0.41956  
I    1.25298    0.00001    0.26011   
C    3.19904    0.00005    -0.26107  
N    4.31717    0.00017    -0.56149  
$end

$rem
JOBTYPE  OPT
METHOD  B3LYP
BASIS  DEF2-SVPD
SYMMETRY  FALSE
SYM_IGNORE  TRUE
MEM_TOTAL  8000
MEM_STATIC  2000
BASIS_LIN_DEP_THRESH  6
THRESH  14
SCF_CONVERGENCE  8
FD_MAT_VEC_PROD  FALSE
XC_GRID  000099000590
NL_GRID  1
MAX_SCF_CYCLES  200
GEOM_OPT_MAX_CYCLES  200
GEOM_OPT_DRIVER  OPTIMIZE
$end

@@@

$molecule
read
$end

$rem
JOBTYPE  FREQ
METHOD  B3LYP
BASIS  DEF2-SVPD
SYMMETRY  FALSE
SYM_IGNORE  TRUE
MEM_TOTAL  8000
MEM_STATIC  2000
BASIS_LIN_DEP_THRESH  6
THRESH  14
SCF_CONVERGENCE  8
FD_MAT_VEC_PROD  FALSE
XC_GRID  000099000590
NL_GRID  1
MAX_SCF_CYCLES  200
GEOM_OPT_MAX_CYCLES  200
GEOM_OPT_DRIVER  OPTIMIZE
SCF_GUESS  READ
$end
