$molecule
0 1
--
0 1
C    -1.51515   -1.68734   0.63143   
Si   -1.46549   0.06299    -0.07617  
C    -1.36813   1.34293    1.30943   
C    -2.96112   0.38544    -1.18568  
H    -0.23241   0.19192    -0.92249  
H    -1.55228   -2.44247   -0.16845  
H    -0.62440   -1.89045   1.24431   
H    -2.40138   -1.83193   1.26878   
H    -1.30516   2.36554    0.90730   
H    -0.48382   1.17534    1.94210   
H    -2.25752   1.29283    1.95674   
H    -2.92223   1.39409    -1.62420  
H    -3.00675   -0.33789   -2.01387  
H    -3.90083   0.30344    -0.61744  
--
0 1
C    2.42675    -0.14809   -0.12331  
O    2.17240    -0.46529   0.97892   
F    2.56636    -0.96089   -1.15062  
F    2.64164    1.08127    -0.54530  
$end

$rem
JOBTYPE  EDA
EDA2  1
METHOD  B3LYP
BASIS  DEF2-TZVPPD
SYMMETRY  FALSE
SYM_IGNORE  TRUE
MEM_TOTAL  8000
MEM_STATIC  2000
BASIS_LIN_DEP_THRESH  6
THRESH  14
SCF_CONVERGENCE  8
GEN_SCFMAN  TRUE
MAXSCF  200
FD_MAT_VEC_PROD  FALSE
XC_GRID  000099000590
NL_GRID  1
SCF_GUESS  FRAGMO
FRZ_ORTHO_DECOMP  -1
EDA_CLS_DISP  TRUE
$end
