$molecule
0 1
H    1.4409963009   0.0011146171   0.0000000000
C    0.3410159978   0.0004361711   0.0000000000
F   -0.1260610932  -1.2534938134   0.0000000000
F   -0.1273137401   0.6268711474   1.0856865480
F   -0.1273137401   0.6268711474  -1.0856865480
$end

$rem
BASIS  =  def2-TZVPPD
GUI  =  2
JOB_TYPE  =  SP
METHOD  =  wB97XV
SCF_CONVERGENCE  =  8
POINT_GROUP_SYMMETRY  FALSE
ESP_GRID  -1
MAKE_CUBE_FILES  TRUE
PLOTS     TRUE
GUI       2
$end

$plots
grid_points  100 100 100
$end
