$molecule
0 1
--
0 1
O    2.96667    -0.02454   0.00000   
H    3.54973    0.00105    -0.76565  
H    3.54973    0.00105    0.76565   
--
0 1
H    0.51617    -0.05136   0.00000   
C    -0.58089   -0.00826   0.00000   
F    -1.10575   -1.24175   0.00000   
F    -1.03039   0.63708    1.08585   
F    -1.03039   0.63708    -1.08585  
$end

$rem
JOBTYPE  EDA
EDA2  2
METHOD  WB97X-V
BASIS  DEF2-SVPD
SYMMETRY  FALSE
SYM_IGNORE  TRUE
MEM_TOTAL  8000
MEM_STATIC  2000
BASIS_LIN_DEP_THRESH  6
THRESH  14
SCF_CONVERGENCE  8
GEN_SCFMAN  TRUE
MAXSCF  200
FD_MAT_VEC_PROD  FALSE
XC_GRID  000099000590
NL_GRID  1
SCF_GUESS  FRAGMO
FRZ_ORTHO_DECOMP  -1
EDA_CLS_DISP  TRUE
$end
