$molecule
0 1
--
0 1
H    -1.67037   -0.00014   1.18837   
Si   -2.69846   -0.00001   0.08970   
C    -2.44852   -1.54844   -0.95401  
H    -1.44869   -1.56825   -1.41715  
H    -2.55681   -2.46283   -0.34876  
H    -3.19177   -1.59545   -1.76698  
C    -4.40358   -0.00013   0.88762   
H    -4.54997   -0.89028   1.52011   
H    -5.19519   -0.00004   0.12025   
H    -4.54999   0.88985    1.52035   
C    -2.44856   1.54868    -0.95363  
H    -3.19178   1.59586    -1.76661  
H    -1.44871   1.56864    -1.41674  
H    -2.55690   2.46292    -0.34816  
--
0 1
I    1.48669    0.00010    0.38158   
C    3.32273    0.00015    -0.42477  
N    4.38211    0.00016    -0.89124  
$end

$rem
JOBTYPE  EDA
EDA2  2
METHOD  WB97X-V
BASIS  DEF2-SVPD
SYMMETRY  FALSE
SYM_IGNORE  TRUE
MEM_TOTAL  8000
MEM_STATIC  2000
BASIS_LIN_DEP_THRESH  6
THRESH  14
SCF_CONVERGENCE  8
GEN_SCFMAN  TRUE
MAXSCF  200
FD_MAT_VEC_PROD  FALSE
XC_GRID  000099000590
NL_GRID  1
SCF_GUESS  FRAGMO
FRZ_ORTHO_DECOMP  -1
EDA_CLS_DISP  TRUE
$end
