$molecule
0 1
--
0 1
C    -1.64159   -1.74680   0.53308   
Si   -1.50437   -0.00241   -0.16277  
C    -1.16625   1.23580    1.21734   
C    -3.06989   0.46802    -1.10050  
H    -0.35347   0.03492    -1.13086  
H    -1.82789   -2.48387   -0.26456  
H    -0.71557   -2.03920   1.05341   
H    -2.47112   -1.81790   1.25601   
H    -1.02075   2.25285    0.81871   
H    -0.26479   0.96397    1.78926   
H    -2.01155   1.27143    1.92449   
H    -2.99321   1.48189    -1.52512  
H    -3.26474   -0.22985   -1.93061  
H    -3.94774   0.44929    -0.43364  
--
0 1
C    2.34504    -0.06592   0.01360   
O    2.05488    -0.74053   0.93010   
F    2.77156    -0.49059   -1.15383  
F    2.30274    1.24738    -0.02055  
$end

$rem
JOBTYPE  EDA
EDA2  2
METHOD  WB97X-V
BASIS  DEF2-SVPD
SYMMETRY  FALSE
SYM_IGNORE  TRUE
MEM_TOTAL  8000
MEM_STATIC  2000
BASIS_LIN_DEP_THRESH  6
THRESH  14
SCF_CONVERGENCE  8
GEN_SCFMAN  TRUE
MAXSCF  200
FD_MAT_VEC_PROD  FALSE
XC_GRID  000099000590
NL_GRID  1
SCF_GUESS  FRAGMO
FRZ_ORTHO_DECOMP  -1
EDA_CLS_DISP  TRUE
$end
