$molecule
0 1
--
0 1
O    -1.66061   0.11294    0.00000   
H    -2.04516   -0.76880   0.00000   
H    -0.70599   -0.02731   0.00000   
--
0 1
O    1.52338    -0.09701   0.00000   
H    1.92550    0.32526    -0.76632  
H    1.92550    0.32526    0.76632   
$end

$rem
JOBTYPE  EDA
EDA2  2
METHOD  WB97X-V
BASIS  DEF2-SVPD
SYMMETRY  FALSE
SYM_IGNORE  TRUE
MEM_TOTAL  8000
MEM_STATIC  2000
BASIS_LIN_DEP_THRESH  6
THRESH  14
SCF_CONVERGENCE  8
GEN_SCFMAN  TRUE
MAXSCF  200
FD_MAT_VEC_PROD  FALSE
XC_GRID  000099000590
NL_GRID  1
SCF_GUESS  FRAGMO
FRZ_ORTHO_DECOMP  -1
EDA_CLS_DISP  TRUE
$end
