$molecule
0 1
O    0.0000000000   0.0000000000   0.1177926773
H   -0.7650869966   0.0000000000  -0.4662899263
H    0.7650869966   0.0000000000  -0.4662899263
$end

$rem
BASIS  =  def2-TZVPPD
GUI  =  2
JOB_TYPE  =  SP
METHOD  =  wB97XV
SCF_CONVERGENCE  =  8
POINT_GROUP_SYMMETRY  FALSE
ESP_GRID  -1
MAKE_CUBE_FILES  TRUE
PLOTS     TRUE
GUI       2
$end

$plots
grid_points  100 100 100
$end
