$molecule
0 1
--
0 1
H    1.14950    0.00107    1.18854   
Si   2.17975    0.00039    0.08841   
C    3.88313    0.00175    0.88886   
C    1.92615    -1.54897   -0.95234  
C    1.92508    1.54757    -0.95530  
H    4.02781    0.89256    1.52061   
H    4.67490    0.00132    0.12166   
H    4.02845    -0.88778   1.52227   
H    2.02349    -2.46250   -0.34404  
H    0.92908    -1.56142   -1.42116  
H    2.67431    -1.60301   -1.76029  
H    0.92805    1.55836    -1.42427  
H    2.02164    2.46233    -0.34873  
H    2.67329    1.60065    -1.76326  
--
0 1
Br   -1.53983   -0.00030   0.38107   
C    -3.22135   -0.00114   -0.24704  
N    -4.30510   -0.00173   -0.65258  
$end

$rem
JOBTYPE  EDA
EDA2  1
METHOD  WB97X-V
BASIS  DEF2-TZVPPD
SYMMETRY  FALSE
SYM_IGNORE  TRUE
MEM_TOTAL  8000
MEM_STATIC  2000
BASIS_LIN_DEP_THRESH  6
THRESH  14
SCF_CONVERGENCE  8
GEN_SCFMAN  TRUE
MAXSCF  200
FD_MAT_VEC_PROD  FALSE
XC_GRID  000099000590
NL_GRID  1
SCF_GUESS  FRAGMO
FRZ_ORTHO_DECOMP  -1
EDA_CLS_DISP  TRUE
EDA_POL_A  TRUE
EDA_VCT_A  TRUE
EDA_SAVE_COVP  TRUE
EDA_COVP_THRESH  1000
MAKE_CUBE_FILES  TRUE
PLOTS  TRUE
$end

$plots
 grid_points 100 100 100
$end
