$molecule
0 1
--
0 1
C    2.90994    -1.54558   1.02871   
Si   3.13158    -0.00044   -0.02503  
C    4.81080    -0.00362   -0.87686  
C    2.91005    1.55211    1.01780   
H    2.07092    -0.00379   -1.09596  
H    2.99665    -2.46128   0.42197   
H    3.67708    -1.59279   1.81920   
H    1.92318    -1.55921   1.51878   
H    4.93587    -0.89603   -1.51060  
H    4.93610    0.88434    -1.51676  
H    5.62582    -0.00116   -0.13437  
H    1.92314    1.56917    1.50750   
H    3.67698    1.60517    1.80810   
H    2.99674    2.46340    0.40444   
--
0 1
I    -0.74770   -0.00263   -0.36203  
C    -2.81165   -0.00215   0.20722   
F    -3.10282   1.08097    0.92845   
F    -3.59784   -0.00844   -0.86946  
F    -3.10041   -1.07859   0.93930   
$end

$rem
JOBTYPE  EDA
EDA2  1
METHOD  WB97X-V
BASIS  DEF2-TZVPPD
SYMMETRY  FALSE
SYM_IGNORE  TRUE
MEM_TOTAL  8000
MEM_STATIC  2000
BASIS_LIN_DEP_THRESH  6
THRESH  14
SCF_CONVERGENCE  8
GEN_SCFMAN  TRUE
MAXSCF  200
FD_MAT_VEC_PROD  FALSE
XC_GRID  000099000590
NL_GRID  1
SCF_GUESS  FRAGMO
FRZ_ORTHO_DECOMP  -1
EDA_CLS_DISP  TRUE
EDA_POL_A  TRUE
EDA_VCT_A  TRUE
EDA_SAVE_COVP  TRUE
EDA_COVP_THRESH  1000
MAKE_CUBE_FILES  TRUE
PLOTS  TRUE
$end

$plots
 grid_points 100 100 100
$end
