$molecule
0 1
--
0 1
C    -1.46647   -1.70584   0.68668   
Si   -1.40427   -0.01483   -0.14062  
C    -1.11563   1.33837    1.13833   
C    -2.99139   0.31211    -1.10201  
H    -0.26209   -0.00359   -1.11713  
H    -1.59761   -2.51045   -0.05465  
H    -0.53879   -1.90903   1.24404   
H    -2.30709   -1.76421   1.39773   
H    -1.03634   2.32910    0.66248   
H    -0.18853   1.16328    1.70641   
H    -1.94906   1.37764    1.85903   
H    -2.95639   1.28802    -1.61231  
H    -3.16164   -0.46150   -1.86781  
H    -3.86454   0.31635    -0.42874  
--
0 1
N    2.28974    0.12493    -0.31611  
F    1.89036    -0.62694   0.84627   
O    2.60975    -0.56869   -1.20661  
O    2.21761    1.28365    -0.14096  
$end

$rem
JOBTYPE  EDA
EDA2  1
METHOD  WB97X-V
BASIS  DEF2-TZVPPD
SYMMETRY  FALSE
SYM_IGNORE  TRUE
MEM_TOTAL  8000
MEM_STATIC  2000
BASIS_LIN_DEP_THRESH  6
THRESH  14
SCF_CONVERGENCE  8
GEN_SCFMAN  TRUE
MAXSCF  200
FD_MAT_VEC_PROD  FALSE
XC_GRID  000099000590
NL_GRID  1
SCF_GUESS  FRAGMO
FRZ_ORTHO_DECOMP  -1
EDA_CLS_DISP  TRUE
EDA_POL_A  TRUE
EDA_VCT_A  TRUE
EDA_SAVE_COVP  TRUE
EDA_COVP_THRESH  250
MAKE_CUBE_FILES  TRUE
PLOTS  TRUE
$end

$plots
 grid_points 100 100 100
$end
