$molecule
0 1
--
0 1
O    2.77773    -0.01318   0.00000   
H    3.35837    -0.00196   -0.76769  
H    3.35837    -0.00196   0.76769   
--
0 1
H    0.59878    -0.04551   0.00000   
C    -0.49895   -0.00740   0.00000   
F    -1.02270   -1.24292   0.00000   
F    -0.95441   0.63633    1.08615   
F    -0.95441   0.63633    -1.08615  
$end

$rem
JOBTYPE  EDA
EDA2  1
METHOD  B3LYP
BASIS  DEF2-TZVPPD
SYMMETRY  FALSE
SYM_IGNORE  TRUE
MEM_TOTAL  8000
MEM_STATIC  2000
BASIS_LIN_DEP_THRESH  6
THRESH  14
SCF_CONVERGENCE  8
GEN_SCFMAN  TRUE
MAXSCF  200
FD_MAT_VEC_PROD  FALSE
XC_GRID  000099000590
NL_GRID  1
DFT_D  D3_BJ
SCF_GUESS  FRAGMO
FRZ_ORTHO_DECOMP  -1
EDA_CLS_DISP  TRUE
EDA_POL_A  TRUE
EDA_VCT_A  TRUE
$end
