$molecule
1 1
--
0 1
C    1.57613    0.16363    1.79255   
Si   1.05093    0.00013    0.00026   
C    1.57617    1.47029    -1.03791  
C    1.57631    -1.63368   -0.75457  
H    -0.48244   -0.00006   0.00021   
H    1.21628    1.10190    2.24402   
H    1.21367    -0.67598   2.40681   
H    2.67623    0.16838    1.86230   
H    1.21627    -1.74433   -1.78983  
H    1.21424    -2.49411   -0.16958  
H    2.67644    -1.69739   -0.78270  
H    1.21580    1.39178    -2.07600  
H    1.21431    2.42239    -0.61816  
H    2.67628    1.52783    -1.07751  
--
1 1
K    -2.95523   -0.00071   0.00052   
$end

$rem
JOBTYPE  EDA
EDA2  1
METHOD  B3LYP
BASIS  DEF2-TZVPPD
SYMMETRY  FALSE
SYM_IGNORE  TRUE
MEM_TOTAL  8000
MEM_STATIC  2000
BASIS_LIN_DEP_THRESH  6
THRESH  14
SCF_CONVERGENCE  8
GEN_SCFMAN  TRUE
MAXSCF  200
FD_MAT_VEC_PROD  FALSE
XC_GRID  000099000590
NL_GRID  1
DFT_D  D3_BJ
SCF_GUESS  FRAGMO
FRZ_ORTHO_DECOMP  -1
EDA_CLS_DISP  TRUE
EDA_POL_A  TRUE
EDA_VCT_A  TRUE
$end
