$molecule
0 1
--
0 1
C    -1.51210   -1.71631   0.62009   
Si   -1.41437   -0.00461   -0.15706  
C    -1.13363   1.30926    1.16393   
C    -2.97214   0.37341    -1.14736  
H    -0.24841   0.01975    -1.10838  
H    -1.65536   -2.49737   -0.14381  
H    -0.59028   -1.94888   1.17570   
H    -2.35714   -1.77772   1.32571   
H    -1.00986   2.30944    0.71832   
H    -0.23502   1.08857    1.76109   
H    -1.99163   1.35401    1.85488   
H    -2.91480   1.36682    -1.62041  
H    -3.12947   -0.37034   -1.94479  
H    -3.86222   0.36195    -0.49674  
--
0 1
C    2.18021    -0.05549   0.02583   
O    1.86475    -0.64128   0.99465   
F    2.59795    -0.59079   -1.09759  
F    2.19402    1.25102    -0.11258  
$end

$rem
JOBTYPE  EDA
EDA2  1
METHOD  B3LYP
BASIS  DEF2-TZVPPD
SYMMETRY  FALSE
SYM_IGNORE  TRUE
MEM_TOTAL  8000
MEM_STATIC  2000
BASIS_LIN_DEP_THRESH  6
THRESH  14
SCF_CONVERGENCE  8
GEN_SCFMAN  TRUE
MAXSCF  200
FD_MAT_VEC_PROD  FALSE
XC_GRID  000099000590
NL_GRID  1
DFT_D  D3_BJ
SCF_GUESS  FRAGMO
FRZ_ORTHO_DECOMP  -1
EDA_CLS_DISP  TRUE
EDA_POL_A  TRUE
EDA_VCT_A  TRUE
$end
