$molecule
0 1
--
0 1
H    0.02669    0.00005    1.49943   
Si   0.78961    0.00006    0.20216   
C    0.33178    1.54856    -0.76659  
H    -0.73953   1.55402    -1.02143  
H    0.55364    2.46363    -0.19387  
H    0.90094    1.59835    -1.70976  
C    2.62916    0.00031    0.61801   
H    2.90777    0.89047    1.20464   
H    3.23878    0.00032    -0.30070  
H    2.90798    -0.88971   1.20476   
C    0.33217    -1.54870   -0.76636  
H    0.90133    -1.59847   -1.70953  
H    0.55427    -2.46363   -0.19352  
H    -0.73914   -1.55449   -1.02119  
--
0 1
N    -3.06699   -0.00012   -0.29700  
C    -2.88249   -0.00032   0.84134   
H    -2.69568   -0.00050   1.90506   
$end

$rem
JOBTYPE  EDA
EDA2  1
METHOD  B3LYP
BASIS  DEF2-TZVPPD
SYMMETRY  FALSE
SYM_IGNORE  TRUE
MEM_TOTAL  8000
MEM_STATIC  2000
BASIS_LIN_DEP_THRESH  6
THRESH  14
SCF_CONVERGENCE  8
GEN_SCFMAN  TRUE
MAXSCF  200
FD_MAT_VEC_PROD  FALSE
XC_GRID  000099000590
NL_GRID  1
DFT_D  D3_BJ
SCF_GUESS  FRAGMO
FRZ_ORTHO_DECOMP  -1
EDA_CLS_DISP  TRUE
EDA_POL_A  TRUE
EDA_VCT_A  TRUE
$end
