$molecule
0 1
--
0 1
H   -1.3553034289  -0.0000930241   0.9664648996
Si  -2.5356824489  -0.0000287250   0.0221300774
C   -2.4232162298  -1.5502718731  -1.0385199742
H   -1.5002998945  -1.5598392918  -1.6405405904
H   -2.4315848151  -2.4620695794  -0.4200447829
H   -3.2758814846  -1.6093902651  -1.7348260346
C   -4.0945972514  -0.0001711935   1.0738535108
H   -4.1405666004  -0.8906294315   1.7206683198
H   -4.9940529883  -0.0001218591   0.4363815958
H   -4.1406024983   0.8901489858   1.7208559087
C   -2.4232944334   1.5504291567  -1.0382141581
H   -3.2759610782   1.6096379283  -1.7345108650
H   -1.5003768531   1.5601648051  -1.6402300675
H   -2.4317143088   2.4621046266  -0.4195595939
--
0 1
I    1.2529846122   0.0000125519   0.2601081051
C    3.1990365395   0.0000549798  -0.2610677547
N    4.3171690258   0.0001708917  -0.5614860777
$end

$rem
JOBTYPE  OPT
GEN_SCFMAN  TRUE
VFB_CTA  FORWARD
METHOD  WB97X-V
BASIS  DEF2-SVPD
UNRESTRICTED  FALSE
MAX_SCF_CYCLES  2000
THRESH  14
SCF_CONVERGENCE  9
MEM_TOTAL  8000
MEM_STATIC  2000
SCF_GUESS  FRAGMO
SYMMETRY  FALSE
SYM_IGNORE  FALSE
SCF_ALGORITHM  DIIS
BASIS_LIN_DEP_THRESH  6
IDERIV  1
SCFMI_MODE  0
XC_GRID  000075000302
NL_GRID  1
FD_MAT_VEC_PROD  FALSE
GEOM_OPT_TOL_GRADIENT  50
GEOM_OPT_TOL_DISPLACEMENT  50
GEOM_OPT_TOL_ENERGY  10
GEOM_OPT_DRIVER  OPTIMIZE
GEOM_OPT_MAX_CYCLES  200
$end

@@@

$molecule
read
$end

$rem
JOBTYPE  FREQ
GEN_SCFMAN  TRUE
VFB_CTA  FORWARD
METHOD  WB97X-V
BASIS  DEF2-SVPD
UNRESTRICTED  FALSE
MAX_SCF_CYCLES  2000
THRESH  14
SCF_CONVERGENCE  9
MEM_TOTAL  8000
MEM_STATIC  2000
SCF_GUESS  FRAGMO
SYMMETRY  FALSE
SYM_IGNORE  FALSE
SCF_ALGORITHM  DIIS
BASIS_LIN_DEP_THRESH  6
IDERIV  1
SCFMI_MODE  0
XC_GRID  000075000302
NL_GRID  1
FD_MAT_VEC_PROD  FALSE
GEOM_OPT_TOL_GRADIENT  50
GEOM_OPT_TOL_DISPLACEMENT  50
GEOM_OPT_TOL_ENERGY  10
GEOM_OPT_DRIVER  OPTIMIZE
GEOM_OPT_MAX_CYCLES  200
$end
