$molecule
0 1
--
0 1
C    2.9099427164  -1.5455816664   1.0287056806
Si   3.1315821078  -0.0004365354  -0.0250327230
C    4.8108030443  -0.0036246845  -0.8768617423
C    2.9100490034   1.5521147824   1.0178015819
H    2.0709240204  -0.0037859214  -1.0959634872
H    2.9966513272  -2.4612846418   0.4219707332
H    3.6770752202  -1.5927888082   1.8191986691
H    1.9231777602  -1.5592076496   1.5187816698
H    4.9358748887  -0.8960269843  -1.5106045549
H    4.9361024130   0.8843421917  -1.5167609654
H    5.6258216346  -0.0011618467  -0.1343730854
H    1.9231385571   1.5691704169   1.5074978608
H    3.6769769086   1.6051735502   1.8081040502
H    2.9967423708   2.4633994551   0.4044386901
--
0 1
I   -0.7477041975  -0.0026311828  -0.3620324281
C   -2.8116506363  -0.0021542445   0.2072182160
F   -3.1028158745   1.0809723613   0.9284464012
F   -3.5978441704  -0.0084382020  -0.8694556745
F   -3.1004120749  -1.0785913800   0.9393044422
$end

$rem
JOBTYPE  OPT
GEN_SCFMAN  TRUE
VFB_CTA  FORWARD
METHOD  WB97X-V
BASIS  DEF2-SVPD
UNRESTRICTED  FALSE
MAX_SCF_CYCLES  2000
THRESH  14
SCF_CONVERGENCE  9
MEM_TOTAL  8000
MEM_STATIC  2000
SCF_GUESS  FRAGMO
SYMMETRY  FALSE
SYM_IGNORE  FALSE
SCF_ALGORITHM  DIIS
BASIS_LIN_DEP_THRESH  6
IDERIV  1
SCFMI_MODE  0
XC_GRID  000075000302
NL_GRID  1
FD_MAT_VEC_PROD  FALSE
GEOM_OPT_TOL_GRADIENT  50
GEOM_OPT_TOL_DISPLACEMENT  50
GEOM_OPT_TOL_ENERGY  10
GEOM_OPT_DRIVER  OPTIMIZE
GEOM_OPT_MAX_CYCLES  200
$end

@@@

$molecule
read
$end

$rem
JOBTYPE  FREQ
GEN_SCFMAN  TRUE
VFB_CTA  FORWARD
METHOD  WB97X-V
BASIS  DEF2-SVPD
UNRESTRICTED  FALSE
MAX_SCF_CYCLES  2000
THRESH  14
SCF_CONVERGENCE  9
MEM_TOTAL  8000
MEM_STATIC  2000
SCF_GUESS  FRAGMO
SYMMETRY  FALSE
SYM_IGNORE  FALSE
SCF_ALGORITHM  DIIS
BASIS_LIN_DEP_THRESH  6
IDERIV  1
SCFMI_MODE  0
XC_GRID  000075000302
NL_GRID  1
FD_MAT_VEC_PROD  FALSE
GEOM_OPT_TOL_GRADIENT  50
GEOM_OPT_TOL_DISPLACEMENT  50
GEOM_OPT_TOL_ENERGY  10
GEOM_OPT_DRIVER  OPTIMIZE
GEOM_OPT_MAX_CYCLES  200
$end
