$molecule
0 1
--
0 1
H    1.1494978093   0.0010746281   1.1885438814
Si   2.1797527184   0.0003866633   0.0884069113
C    3.8831281360   0.0017470612   0.8888589291
C    1.9261518830  -1.5489682632  -0.9523382356
C    1.9250789847   1.5475702264  -0.9553016271
H    4.0278080909   0.8925612005   1.5206066924
H    4.6748977285   0.0013165088   0.1216648839
H    4.0284499554  -0.8877789475   1.5222717202
H    2.0234915703  -2.4625023270  -0.3440378364
H    0.9290786907  -1.5614183875  -1.4211640326
H    2.6743094963  -1.6030064874  -1.7602892535
H    0.9280538528   1.5583617951  -1.4242718642
H    2.0216387339   2.4623328972  -0.3487258617
H    2.6732945480   1.6006478629  -1.7632623732
--
0 1
Br  -1.5398321693  -0.0002999281   0.3810664448
C   -3.2213463951  -0.0011389440  -0.2470382510
N   -4.3050953166  -0.0017313559  -0.6525843189
$end

$rem
JOBTYPE  OPT
GEN_SCFMAN  TRUE
VFB_CTA  BACKWARD
METHOD  WB97X-V
BASIS  DEF2-SVPD
UNRESTRICTED  FALSE
MAX_SCF_CYCLES  2000
THRESH  14
SCF_CONVERGENCE  9
MEM_TOTAL  8000
MEM_STATIC  2000
SCF_GUESS  FRAGMO
SYMMETRY  FALSE
SYM_IGNORE  FALSE
SCF_ALGORITHM  DIIS
BASIS_LIN_DEP_THRESH  6
IDERIV  1
SCFMI_MODE  0
XC_GRID  000075000302
NL_GRID  1
FD_MAT_VEC_PROD  FALSE
GEOM_OPT_TOL_GRADIENT  50
GEOM_OPT_TOL_DISPLACEMENT  50
GEOM_OPT_TOL_ENERGY  10
GEOM_OPT_DRIVER  OPTIMIZE
GEOM_OPT_MAX_CYCLES  200
$end

@@@

$molecule
read
$end

$rem
JOBTYPE  FREQ
GEN_SCFMAN  TRUE
VFB_CTA  BACKWARD
METHOD  WB97X-V
BASIS  DEF2-SVPD
UNRESTRICTED  FALSE
MAX_SCF_CYCLES  2000
THRESH  14
SCF_CONVERGENCE  9
MEM_TOTAL  8000
MEM_STATIC  2000
SCF_GUESS  FRAGMO
SYMMETRY  FALSE
SYM_IGNORE  FALSE
SCF_ALGORITHM  DIIS
BASIS_LIN_DEP_THRESH  6
IDERIV  1
SCFMI_MODE  0
XC_GRID  000075000302
NL_GRID  1
FD_MAT_VEC_PROD  FALSE
GEOM_OPT_TOL_GRADIENT  50
GEOM_OPT_TOL_DISPLACEMENT  50
GEOM_OPT_TOL_ENERGY  10
GEOM_OPT_DRIVER  OPTIMIZE
GEOM_OPT_MAX_CYCLES  200
$end
