$molecule
0 1
--
0 1
S    1.11944    0.92434    0.00000   
H    -0.22866   0.93171    0.00000   
C    1.30996    -0.88127   0.00000   
H    2.38847    -1.09062   0.00000   
H    0.86268    -1.32956   0.89720   
H    0.86268    -1.32956   -0.89720  
--
0 1
O    -2.17482   -0.35392   0.00000   
H    -2.75709   -0.36743   0.76674   
H    -2.75709   -0.36743   -0.76674  
$end

$rem
JOBTYPE  EDA
EDA2  1
METHOD  WB97X-V
BASIS  DEF2-TZVPPD
SYMMETRY  FALSE
SYM_IGNORE  TRUE
MEM_TOTAL  8000
MEM_STATIC  2000
BASIS_LIN_DEP_THRESH  6
THRESH  14
SCF_CONVERGENCE  8
GEN_SCFMAN  TRUE
MAXSCF  200
FD_MAT_VEC_PROD  FALSE
XC_GRID  000099000590
NL_GRID  1
SCF_GUESS  FRAGMO
FRZ_ORTHO_DECOMP  -1
EDA_CLS_DISP  TRUE
EDA_POL_A  TRUE
EDA_VCT_A  TRUE
EDA_SAVE_COVP  TRUE
MAKE_CUBE_FILES  TRUE
PLOTS  TRUE
$end

$plots
 grid_points 100 100 100
$end
