$molecule
0 1
--
0 1
O    -1.78187   -0.64997   -0.08005  
H    -1.00821   -0.85315   0.46635   
C    -2.02730   0.75455    -0.01668  
C    -3.24660   0.99947    -0.90404  
H    -4.10609   0.42364    -0.53031  
H    -3.51435   2.06711    -0.91786  
H    -3.03428   0.67412    -1.93311  
C    -2.31912   1.15929    1.43423   
H    -3.17813   0.58936    1.81854   
H    -1.44571   0.94950    2.07195   
H    -2.54716   2.23457    1.50922   
C    -0.80500   1.51342    -0.54985  
H    -0.58159   1.19148    -1.57788  
H    -0.98164   2.60078    -0.55143  
H    0.07499    1.31107    0.08104   
--
0 1
O    0.60200    -1.15403   1.53491   
H    0.50331    -1.78557   2.25527   
H    1.33642    -1.47747   1.00215   
$end

$rem
JOBTYPE  EDA
EDA2  1
METHOD  WB97X-V
BASIS  DEF2-TZVPPD
SYMMETRY  FALSE
SYM_IGNORE  TRUE
MEM_TOTAL  8000
MEM_STATIC  2000
BASIS_LIN_DEP_THRESH  6
THRESH  14
SCF_CONVERGENCE  8
GEN_SCFMAN  TRUE
MAXSCF  200
FD_MAT_VEC_PROD  FALSE
XC_GRID  000099000590
NL_GRID  1
SCF_GUESS  FRAGMO
FRZ_ORTHO_DECOMP  -1
EDA_CLS_DISP  TRUE
EDA_POL_A  TRUE
EDA_VCT_A  TRUE
EDA_SAVE_COVP  TRUE
MAKE_CUBE_FILES  TRUE
PLOTS  TRUE
$end

$plots
 grid_points 100 100 100
$end
