$molecule
0 1
--
0 1
S    1.0437494312   1.0704745146   0.0529051641
H   -0.3045468801   1.0181475351   0.0232909206
C    1.3178994838  -0.7559257346   0.0162323542
C    2.8387208583  -0.9488898488   0.0442147335
H    3.0751920925  -2.0249547488   0.0249118871
H    3.3143572255  -0.4756106700  -0.8283029172
H    3.2764787867  -0.5161911267   0.9567290754
C    0.6697677609  -1.3998324185   1.2465112037
H    1.0780811091  -0.9714001022   2.1733951350
H   -0.4187278296  -1.2425790029   1.2357225635
H    0.8605630050  -2.4866396008   1.2472477610
C    0.7235972625  -1.3413927964  -1.2691819303
H    0.9153691166  -2.4271649244  -1.3121649323
H   -0.3645117982  -1.1837036196  -1.2977388012
H    1.1706520514  -0.8708321865  -2.1569417958
--
0 1
O   -2.4610131036   0.0703393730  -0.0471074022
H   -3.0067787030   0.3043815032   0.7105941773
H   -2.9697198690   0.3352238541  -0.8203071964
$end

$rem
JOBTYPE  EDA
EDA2  1
METHOD  WB97X-V
BASIS  DEF2-TZVPPD
SYMMETRY  FALSE
SYM_IGNORE  TRUE
MEM_TOTAL  8000
MEM_STATIC  2000
BASIS_LIN_DEP_THRESH  6
THRESH  14
SCF_CONVERGENCE  8
GEN_SCFMAN  TRUE
MAXSCF  200
FD_MAT_VEC_PROD  FALSE
XC_GRID  000099000590
NL_GRID  1
SCF_GUESS  FRAGMO
FRZ_ORTHO_DECOMP  -1
EDA_CLS_DISP  TRUE
EDA_POL_A  TRUE
EDA_VCT_A  TRUE
EDA_SAVE_COVP  TRUE
MAKE_CUBE_FILES  TRUE
PLOTS  TRUE
$end

$plots
 grid_points 100 100 100
$end
